p cnf 43 37
-1 40 0 
-2 -3 41 0 
-4 -5 -6 42 0 
-3 41 0 
-7 43 -13 0 
-8 24 41 0 
-9 -10 -3 41 0 
-11 40 0 
-12 40 0 
-13 41 0 
-14 40 0 
-15 41 0 
-16 35 43 -13 0 
-17 43 -13 0 
-18 43 -13 0 
-19 43 -13 0 
-3 -20 41 0 
-21 31 -22 32 41 0 
-23 40 0 
-24 8 -1 -18 -25 40 0 
-26 40 0 
-9 -27 -1 -28 38 40 0 
-1 -29 -30 40 0 
-4 -6 42 0 
-9 -27 -1 -24 8 -31 21 40 0 
-27 -19 -3 41 0 
-32 22 43 -13 0 
-33 41 0 
-6 -34 42 0 
-35 16 43 -13 0 
-36 -19 -18 -37 43 -13 0 
-38 28 43 -13 0 
-37 -25 43 -13 0 
-36 41 0 
-9 -1 40 0 
-11 -8 24 41 0 
-39 41 0 
